41841.21 0
177 176 540 538 537 539 548 546 547 103 98 554 553 552 99 100 102 101 551 550 559 549 564 560 561 562 563 565 566 567 27 26 25 28 29 30 32 31 22 23 24 21 20 12 13 14 11 15 16 17 18 19 568 569 570 474 473 472 471 470 469 468 467 466 571 573 572 7 8 10 9 6 5 0 4 3 2 1 458 460 459 457 456 455 454 438 437 432 430 429 428 427 426 423 422 421 420 419 424 425 383 384 409 404 405 408 407 397 396 371 372 370 398 399 406 400 401 402 403 412 411 410 418 417 413 414 416 415 350 347 348 349 351 352 353 354 355 356 357 358 359 360 361 362 363 364 346 345 344 365 368 369 367 327 326 325 328 329 366 342 343 341 340 339 338 337 336 333 335 334 283 284 285 286 287 280 281 282 279 278 288 289 290 277 276 275 274 273 292 291 332 331 330 324 296 295 294 293 270 268 269 272 271 267 266 265 264 263 262 261 260 256 255 254 253 252 251 250 249 248 247 246 245 244 243 239 238 237 240 242 241 300 257 259 258 299 298 297 319 320 321 322 323 373 374 375 395 394 393 376 377 378 379 380 381 390 392 391 389 388 387 385 386 382 431 433 434 435 436 439 442 443 444 445 446 447 448 449 440 441 450 451 500 499 453 452 461 462 463 464 465 496 497 498 501 502 503 504 505 308 309 310 311 312 314 315 316 313 305 317 318 306 304 307 303 301 302 508 507 506 516 515 514 513 509 510 511 512 527 528 529 490 491 492 525 526 523 522 521 520 517 519 518 495 494 524 493 485 484 483 481 482 475 476 480 479 477 478 545 544 543 541 542 107 106 105 104 95 96 97 94 93 92 91 46 45 555 556 557 558 35 34 33 36 37 38 40 41 39 42 43 44 47 48 49 54 55 56 53 52 50 51 84 85 86 82 83 57 58 59 60 61 79 80 81 87 90 89 88 78 62 63 64 76 77 75 74 73 72 65 66 67 68 69 70 71 123 122 120 119 118 121 117 124 125 126 127 128 138 139 140 141 151 150 149 152 148 147 146 142 143 144 136 135 137 129 130 116 115 114 111 110 109 108 172 173 174 175 170 171 169 166 167 163 168 162 160 161 112 113 131 132 133 134 158 145 157 159 156 155 153 154 164 165 201 200 199 198 202 204 203 208 207 206 205 209 210 211 212 213 214 215 216 217 223 224 222 221 220 218 219 193 194 195 196 197 184 183 185 192 191 190 226 225 232 236 235 234 233 189 227 228 229 230 231 533 532 531 530 489 488 534 486 487 535 536 188 187 186 182 179 181 180 178